Version identifier: 12.10.0.0 | 2019-11-26 | 843d4de
CPXPARAM_WorkMem                                 28672
Tried aggregator 2 times.
MIP Presolve modified 33 coefficients.
Aggregator did 50 substitutions.
Reduced MIP has 163 rows, 180 columns, and 726 nonzeros.
Reduced MIP has 180 binaries, 0 generals, 0 SOSs, and 0 indicators.
Presolve time = 0,00 sec. (1,04 ticks)
Found incumbent of value 810,000000 after 0,00 sec. (1,49 ticks)
Probing time = 0,00 sec. (0,32 ticks)
Tried aggregator 1 time.
Detecting symmetries...
MIP Presolve eliminated 39 rows and 0 columns.
MIP Presolve added 78 rows and 0 columns.
Reduced MIP has 202 rows, 180 columns, and 765 nonzeros.
Reduced MIP has 180 binaries, 0 generals, 0 SOSs, and 0 indicators.
Presolve time = 0,00 sec. (1,02 ticks)
Probing time = 0,00 sec. (0,32 ticks)
Clique table members: 526.
MIP emphasis: balance optimality and feasibility.
MIP search method: dynamic search.
Parallel mode: deterministic, using up to 16 threads.
Root relaxation solution time = 0,00 sec. (1,07 ticks)

        Nodes                                         Cuts/
   Node  Left     Objective  IInf  Best Integer    Best Bound    ItCnt     Gap

*     0+    0                          810,0000        0,0000           100,00%
*     0+    0                          580,0000        0,0000           100,00%
      0     0      287,0000   180      580,0000      287,0000      117   50,52%
      0     0      296,5417   180      580,0000      Cuts: 45      166   48,87%
      0     0      303,4445   180      580,0000      Cuts: 87      204   47,68%
      0     0      306,3451   180      580,0000     Cuts: 121      244   47,18%
      0     0      307,2177   180      580,0000      Cuts: 58      277   47,03%
      0     0      309,2394   180      580,0000      Cuts: 85      329   46,68%
      0     0      357,0822   180      580,0000     Cuts: 150      473   38,43%
      0     0      360,0223   180      580,0000      Cuts: 93      530   37,93%
      0     0      362,7685   180      580,0000      Cuts: 91      580   37,45%
      0     0      364,5874   180      580,0000      Cuts: 25      615   37,14%
      0     0      367,1944   180      580,0000      Cuts: 74      657   36,69%
      0     0      368,7018   180      580,0000      Cuts: 31      694   36,43%
      0     0      370,8708   180      580,0000      Cuts: 44      744   36,06%
*     0+    0                          577,0000      370,8708            35,72%
      0     0      372,1554   180      577,0000      Cuts: 74      788   35,50%
      0     0      372,6960   180      577,0000      Cuts: 30      827   35,41%
      0     0      373,6412   180      577,0000      Cuts: 21      873   35,24%
      0     0      375,4578   180      577,0000      Cuts: 75      933   34,93%
      0     0      375,9256   180      577,0000      Cuts: 26      976   34,85%
      0     0      376,5942   180      577,0000      Cuts: 35     1014   34,73%
      0     0      376,8334   180      577,0000      Cuts: 78     1060   34,69%
*     0+    0                          543,0000      376,8334            30,60%
      0     0      377,0572   180      543,0000      Cuts: 37     1094   30,56%
      0     0      377,3141   180      543,0000      Cuts: 44     1123   30,51%
      0     0      377,6589   180      543,0000      Cuts: 24     1167   30,45%
      0     0      378,2452   180      543,0000      Cuts: 50     1242   30,34%
      0     0      378,9529   180      543,0000      Cuts: 71     1298   30,21%
      0     0      379,6416   180      543,0000      Cuts: 65     1375   30,08%
      0     0      380,4805   180      543,0000      Cuts: 31     1439   29,93%
      0     0      380,8507   180      543,0000      Cuts: 57     1497   29,86%
      0     0      381,2730   180      543,0000      Cuts: 42     1545   29,78%
      0     0      381,6164   180      543,0000      Cuts: 55     1588   29,72%
      0     0      381,9537   180      543,0000      Cuts: 43     1635   29,66%
      0     0      382,4236   180      543,0000      Cuts: 36     1701   29,57%
      0     0      382,7753   180      543,0000      Cuts: 45     1752   29,51%
      0     0      383,3252   180      543,0000      Cuts: 50     1810   29,41%
      0     0      383,7514   180      543,0000      Cuts: 60     1859   29,33%
      0     0      383,9846   180      543,0000      Cuts: 70     1901   29,28%
      0     0      384,4513   180      543,0000      Cuts: 24     1957   29,20%
      0     0      384,7572   180      543,0000      Cuts: 50     2010   29,14%
      0     0      384,9229   180      543,0000      Cuts: 68     2055   29,11%
      0     0      385,0972   180      543,0000      Cuts: 46     2122   29,08%
      0     0      385,4094   180      543,0000      Cuts: 44     2170   29,02%
      0     0      385,7905   180      543,0000      Cuts: 50     2249   28,95%
      0     0      386,0839   180      543,0000      Cuts: 54     2316   28,90%
      0     0      387,1680   180      543,0000      Cuts: 48     2413   28,70%
      0     0      387,7743   180      543,0000      Cuts: 76     2482   28,59%
      0     0      388,2309   180      543,0000      Cuts: 37     2544   28,50%
      0     0      388,9769   180      543,0000      Cuts: 46     2600   28,37%
      0     0      389,2012   180      543,0000      Cuts: 48     2641   28,32%
      0     0      389,6218   180      543,0000      Cuts: 63     2687   28,25%
      0     0      390,3291   180      543,0000      Cuts: 55     2749    8,23%
      0     0      390,6597   180      543,0000      Cuts: 56     2797    8,23%
      0     0        cutoff            543,0000      543,0000     2797    0,00%
Elapsed time = 0,64 sec. (331,34 ticks, tree = 0,01 MB, solutions = 4)

Clique cuts applied:  6
Cover cuts applied:  21
Flow cuts applied:  2
Mixed integer rounding cuts applied:  15
Zero-half cuts applied:  71
Gomory fractional cuts applied:  3

Root node processing (before b&c):
  Real time             =    0,64 sec. (331,36 ticks)
Parallel b&c, 16 threads:
  Real time             =    0,00 sec. (0,00 ticks)
  Sync time (average)   =    0,00 sec.
  Wait time (average)   =    0,00 sec.
                          ------------
Total (root+branch&cut) =    0,64 sec. (331,36 ticks)
